c FILE /home/rafael/Documents/HappySet/MIHS/inputs/happygen/output/graph_d_regular_k4_p0.2_v50_20241127_082613.txt
c SOURCE This is a d-regular graph formed for the happy graph colouring problem.
c DESCRIPTION It was generated using the problem generator of Rhyd Lewis
c
c GRAPH STATS
c Seed                             = 1724043924
c Number of Nodes                  = 50
c Number of colours k              = 4
c Number of pre-assignments        = 10
c Degree of all vertices           = 6
c Density                          = 0.122449
c 
c The degrees of nodes 1 to 50, respectively, are as follows 
c [6, 6, 6, 6, 6, 6, 6, 6, 6, 6, 6, 6, 6, 6, 6, 6, 6, 6, 6, 6, 6, 6, 6, 6, 6, 6, 
c  6, 6, 6, 6, 6, 6, 6, 6, 6, 6, 6, 6, 6, 6, 6, 6, 6, 6, 6, 6, 6, 6, 6, 6] 
c  
p edge 50 150 4
e 1 3
e 1 5
e 1 20
e 1 39
e 1 47
e 1 48
e 2 8
e 2 13
e 2 16
e 2 20
e 2 26
e 2 32
e 3 6
e 3 8
e 3 14
e 3 19
e 3 37
e 4 9
e 4 11
e 4 21
e 4 23
e 4 27
e 4 45
e 5 7
e 5 20
e 5 39
e 5 40
e 5 45
e 6 12
e 6 17
e 6 23
e 6 44
e 6 48
e 7 12
e 7 23
e 7 31
e 7 41
e 7 47
e 8 15
e 8 18
e 8 36
e 8 37
e 9 10
e 9 20
e 9 22
e 9 33
e 9 34
e 10 27
e 10 29
e 10 39
e 10 48
e 10 49
e 11 16
e 11 35
e 11 43
e 11 45
e 11 50
e 12 13
e 12 35
e 12 36
e 12 50
e 13 14
e 13 17
e 13 26
e 13 43
e 14 18
e 14 20
e 14 40
e 14 47
e 15 24
e 15 26
e 15 30
e 15 31
e 15 50
e 16 26
e 16 40
e 16 46
e 16 47
e 17 24
e 17 40
e 17 42
e 17 45
e 18 21
e 18 28
e 18 38
e 18 42
e 19 24
e 19 33
e 19 34
e 19 35
e 19 37
e 20 22
e 21 22
e 21 28
e 21 39
e 21 46
e 22 25
e 22 34
e 22 40
e 23 43
e 23 44
e 23 48
e 24 31
e 24 36
e 24 43
e 25 27
e 25 28
e 25 35
e 25 41
e 25 47
e 26 41
e 26 46
e 27 30
e 27 31
e 27 49
e 28 35
e 28 41
e 28 49
e 29 41
e 29 43
e 29 44
e 29 45
e 29 50
e 30 32
e 30 33
e 30 46
e 30 48
e 31 33
e 31 42
e 32 41
e 32 43
e 32 44
e 32 50
e 33 38
e 33 42
e 34 38
e 34 39
e 34 44
e 35 38
e 36 37
e 36 38
e 36 49
e 37 46
e 37 49
e 38 42
e 39 49
e 40 47
e 42 46
e 44 50
e 45 48
n 7 1
n 8 2
n 10 3
n 16 3
n 29 3
n 34 4
n 37 2
n 38 4
n 40 3
n 50 3
